Route #1: 19 16 4 31 52 36 60 46 24 10
Route #2: 37 18 64 17 51 27 13 63 2 6 47 38 33 11
Route #3: 28 61 56 68 22 62 3 65
Route #4: 29 15 66 43 58 35 48 26 5
Route #5: 54 32 50 34
Route #6: 1 67 41 57 49 40 39 69 14 42 45 7
Route #7: 20 21 9 30 23 59 8 44 25 53 55 12
Route #8: 
Route #9: 
cost 1714.4212532068864
